p cnf 245 1680
1 2 3 4 5 0
-1 -2 0
-1 -3 0
-1 -4 0
-1 -5 0
-2 -3 0
-2 -4 0
-2 -5 0
-3 -4 0
-3 -5 0
-4 -5 0
-1 36 0
-1 6 0
-2 37 0
-2 7 0
-3 38 0
-3 8 0
-4 39 0
-4 9 0
-5 40 0
-5 10 0
6 7 8 9 10 0
-6 -7 0
-6 -8 0
-6 -9 0
-6 -10 0
-7 -8 0
-7 -9 0
-7 -10 0
-8 -9 0
-8 -10 0
-9 -10 0
-6 41 1 0
-6 41 11 0
-6 1 11 0
-7 42 2 0
-7 42 12 0
-7 2 12 0
-8 43 3 0
-8 43 13 0
-8 3 13 0
-9 44 4 0
-9 44 14 0
-9 4 14 0
-10 45 5 0
-10 45 15 0
-10 5 15 0
-6 -41 -1 -11 0
-7 -42 -2 -12 0
-8 -43 -3 -13 0
-9 -44 -4 -14 0
-10 -45 -5 -15 0
11 12 13 14 15 0
-11 -12 0
-11 -13 0
-11 -14 0
-11 -15 0
-12 -13 0
-12 -14 0
-12 -15 0
-13 -14 0
-13 -15 0
-14 -15 0
-11 46 6 0
-11 46 16 0
-11 6 16 0
-12 47 7 0
-12 47 17 0
-12 7 17 0
-13 48 8 0
-13 48 18 0
-13 8 18 0
-14 49 9 0
-14 49 19 0
-14 9 19 0
-15 50 10 0
-15 50 20 0
-15 10 20 0
-11 -46 -6 -16 0
-12 -47 -7 -17 0
-13 -48 -8 -18 0
-14 -49 -9 -19 0
-15 -50 -10 -20 0
16 17 18 19 20 0
-16 -17 0
-16 -18 0
-16 -19 0
-16 -20 0
-17 -18 0
-17 -19 0
-17 -20 0
-18 -19 0
-18 -20 0
-19 -20 0
-16 51 11 0
-16 51 21 0
-16 11 21 0
-17 52 12 0
-17 52 22 0
-17 12 22 0
-18 53 13 0
-18 53 23 0
-18 13 23 0
-19 54 14 0
-19 54 24 0
-19 14 24 0
-20 55 15 0
-20 55 25 0
-20 15 25 0
-16 -51 -11 -21 0
-17 -52 -12 -22 0
-18 -53 -13 -23 0
-19 -54 -14 -24 0
-20 -55 -15 -25 0
21 0
-22 0
-23 0
-24 0
-25 0
56 16 26 0
-56 -16 0
-56 -26 0
-16 -26 0
30 0
-26 0
-27 0
-28 0
-29 0
65 25 35 0
-65 -25 0
-65 -35 0
-25 -35 0
31 32 33 34 35 0
-31 -32 0
-31 -33 0
-31 -34 0
-31 -35 0
-32 -33 0
-32 -34 0
-32 -35 0
-33 -34 0
-33 -35 0
-34 -35 0
-31 66 0
-31 26 0
-32 67 0
-32 27 0
-33 68 0
-33 28 0
-34 69 0
-34 29 0
-35 70 0
-35 30 0
36 37 38 39 40 0
-36 -37 0
-36 -38 0
-36 -39 0
-36 -40 0
-37 -38 0
-37 -39 0
-37 -40 0
-38 -39 0
-38 -40 0
-39 -40 0
-36 71 1 0
-36 71 41 0
-36 1 41 0
-37 72 2 0
-37 72 42 0
-37 2 42 0
-38 73 3 0
-38 73 43 0
-38 3 43 0
-39 74 4 0
-39 74 44 0
-39 4 44 0
-40 75 5 0
-40 75 45 0
-40 5 45 0
-36 -71 -1 -41 0
-37 -72 -2 -42 0
-38 -73 -3 -43 0
-39 -74 -4 -44 0
-40 -75 -5 -45 0
41 42 43 44 45 0
-41 -42 0
-41 -43 0
-41 -44 0
-41 -45 0
-42 -43 0
-42 -44 0
-42 -45 0
-43 -44 0
-43 -45 0
-44 -45 0
-41 76 6 46 0
-41 76 6 36 0
-41 76 46 36 0
-41 6 46 36 0
-42 77 7 47 0
-42 77 7 37 0
-42 77 47 37 0
-42 7 47 37 0
-43 78 8 48 0
-43 78 8 38 0
-43 78 48 38 0
-43 8 48 38 0
-44 79 9 49 0
-44 79 9 39 0
-44 79 49 39 0
-44 9 49 39 0
-45 80 10 50 0
-45 80 10 40 0
-45 80 50 40 0
-45 10 50 40 0
-41 -76 -6 -46 0
-41 -76 -6 -36 0
-41 -76 -46 -36 0
-41 -6 -46 -36 0
-42 -77 -7 -47 0
-42 -77 -7 -37 0
-42 -77 -47 -37 0
-42 -7 -47 -37 0
-43 -78 -8 -48 0
-43 -78 -8 -38 0
-43 -78 -48 -38 0
-43 -8 -48 -38 0
-44 -79 -9 -49 0
-44 -79 -9 -39 0
-44 -79 -49 -39 0
-44 -9 -49 -39 0
-45 -80 -10 -50 0
-45 -80 -10 -40 0
-45 -80 -50 -40 0
-45 -10 -50 -40 0
46 47 48 49 50 0
-46 -47 0
-46 -48 0
-46 -49 0
-46 -50 0
-47 -48 0
-47 -49 0
-47 -50 0
-48 -49 0
-48 -50 0
-49 -50 0
-46 81 11 51 0
-46 81 11 41 0
-46 81 51 41 0
-46 11 51 41 0
-47 82 12 52 0
-47 82 12 42 0
-47 82 52 42 0
-47 12 52 42 0
-48 83 13 53 0
-48 83 13 43 0
-48 83 53 43 0
-48 13 53 43 0
-49 84 14 54 0
-49 84 14 44 0
-49 84 54 44 0
-49 14 54 44 0
-50 85 15 55 0
-50 85 15 45 0
-50 85 55 45 0
-50 15 55 45 0
-46 -81 -11 -51 0
-46 -81 -11 -41 0
-46 -81 -51 -41 0
-46 -11 -51 -41 0
-47 -82 -12 -52 0
-47 -82 -12 -42 0
-47 -82 -52 -42 0
-47 -12 -52 -42 0
-48 -83 -13 -53 0
-48 -83 -13 -43 0
-48 -83 -53 -43 0
-48 -13 -53 -43 0
-49 -84 -14 -54 0
-49 -84 -14 -44 0
-49 -84 -54 -44 0
-49 -14 -54 -44 0
-50 -85 -15 -55 0
-50 -85 -15 -45 0
-50 -85 -55 -45 0
-50 -15 -55 -45 0
51 52 53 54 55 0
-51 -52 0
-51 -53 0
-51 -54 0
-51 -55 0
-52 -53 0
-52 -54 0
-52 -55 0
-53 -54 0
-53 -55 0
-54 -55 0
-51 86 16 56 0
-51 86 16 46 0
-51 86 56 46 0
-51 16 56 46 0
-52 87 17 57 0
-52 87 17 47 0
-52 87 57 47 0
-52 17 57 47 0
-53 88 18 58 0
-53 88 18 48 0
-53 88 58 48 0
-53 18 58 48 0
-54 89 19 59 0
-54 89 19 49 0
-54 89 59 49 0
-54 19 59 49 0
-55 90 20 60 0
-55 90 20 50 0
-55 90 60 50 0
-55 20 60 50 0
-51 -86 -16 -56 0
-51 -86 -16 -46 0
-51 -86 -56 -46 0
-51 -16 -56 -46 0
-52 -87 -17 -57 0
-52 -87 -17 -47 0
-52 -87 -57 -47 0
-52 -17 -57 -47 0
-53 -88 -18 -58 0
-53 -88 -18 -48 0
-53 -88 -58 -48 0
-53 -18 -58 -48 0
-54 -89 -19 -59 0
-54 -89 -19 -49 0
-54 -89 -59 -49 0
-54 -19 -59 -49 0
-55 -90 -20 -60 0
-55 -90 -20 -50 0
-55 -90 -60 -50 0
-55 -20 -60 -50 0
58 0
-56 0
-57 0
-59 0
-60 0
93 23 63 53 0
-93 -23 0
-93 -63 0
-93 -53 0
-23 -63 0
-23 -53 0
-63 -53 0
64 0
-61 0
-62 0
-63 0
-65 0
99 29 69 59 0
-99 -29 0
-99 -69 0
-99 -59 0
-29 -69 0
-29 -59 0
-69 -59 0
66 67 68 69 70 0
-66 -67 0
-66 -68 0
-66 -69 0
-66 -70 0
-67 -68 0
-67 -69 0
-67 -70 0
-68 -69 0
-68 -70 0
-69 -70 0
-66 101 31 0
-66 101 61 0
-66 31 61 0
-67 102 32 0
-67 102 62 0
-67 32 62 0
-68 103 33 0
-68 103 63 0
-68 33 63 0
-69 104 34 0
-69 104 64 0
-69 34 64 0
-70 105 35 0
-70 105 65 0
-70 35 65 0
-66 -101 -31 -61 0
-67 -102 -32 -62 0
-68 -103 -33 -63 0
-69 -104 -34 -64 0
-70 -105 -35 -65 0
71 72 73 74 75 0
-71 -72 0
-71 -73 0
-71 -74 0
-71 -75 0
-72 -73 0
-72 -74 0
-72 -75 0
-73 -74 0
-73 -75 0
-74 -75 0
-71 106 36 0
-71 106 76 0
-71 36 76 0
-72 107 37 0
-72 107 77 0
-72 37 77 0
-73 108 38 0
-73 108 78 0
-73 38 78 0
-74 109 39 0
-74 109 79 0
-74 39 79 0
-75 110 40 0
-75 110 80 0
-75 40 80 0
-71 -106 -36 -76 0
-72 -107 -37 -77 0
-73 -108 -38 -78 0
-74 -109 -39 -79 0
-75 -110 -40 -80 0
76 77 78 79 80 0
-76 -77 0
-76 -78 0
-76 -79 0
-76 -80 0
-77 -78 0
-77 -79 0
-77 -80 0
-78 -79 0
-78 -80 0
-79 -80 0
-76 111 41 81 0
-76 111 41 71 0
-76 111 81 71 0
-76 41 81 71 0
-77 112 42 82 0
-77 112 42 72 0
-77 112 82 72 0
-77 42 82 72 0
-78 113 43 83 0
-78 113 43 73 0
-78 113 83 73 0
-78 43 83 73 0
-79 114 44 84 0
-79 114 44 74 0
-79 114 84 74 0
-79 44 84 74 0
-80 115 45 85 0
-80 115 45 75 0
-80 115 85 75 0
-80 45 85 75 0
-76 -111 -41 -81 0
-76 -111 -41 -71 0
-76 -111 -81 -71 0
-76 -41 -81 -71 0
-77 -112 -42 -82 0
-77 -112 -42 -72 0
-77 -112 -82 -72 0
-77 -42 -82 -72 0
-78 -113 -43 -83 0
-78 -113 -43 -73 0
-78 -113 -83 -73 0
-78 -43 -83 -73 0
-79 -114 -44 -84 0
-79 -114 -44 -74 0
-79 -114 -84 -74 0
-79 -44 -84 -74 0
-80 -115 -45 -85 0
-80 -115 -45 -75 0
-80 -115 -85 -75 0
-80 -45 -85 -75 0
84 0
-81 0
-82 0
-83 0
-85 0
119 49 89 79 0
-119 -49 0
-119 -89 0
-119 -79 0
-49 -89 0
-49 -79 0
-89 -79 0
86 87 88 89 90 0
-86 -87 0
-86 -88 0
-86 -89 0
-86 -90 0
-87 -88 0
-87 -89 0
-87 -90 0
-88 -89 0
-88 -90 0
-89 -90 0
-86 121 51 91 0
-86 121 51 81 0
-86 121 91 81 0
-86 51 91 81 0
-87 122 52 92 0
-87 122 52 82 0
-87 122 92 82 0
-87 52 92 82 0
-88 123 53 93 0
-88 123 53 83 0
-88 123 93 83 0
-88 53 93 83 0
-89 124 54 94 0
-89 124 54 84 0
-89 124 94 84 0
-89 54 94 84 0
-90 125 55 95 0
-90 125 55 85 0
-90 125 95 85 0
-90 55 95 85 0
-86 -121 -51 -91 0
-86 -121 -51 -81 0
-86 -121 -91 -81 0
-86 -51 -91 -81 0
-87 -122 -52 -92 0
-87 -122 -52 -82 0
-87 -122 -92 -82 0
-87 -52 -92 -82 0
-88 -123 -53 -93 0
-88 -123 -53 -83 0
-88 -123 -93 -83 0
-88 -53 -93 -83 0
-89 -124 -54 -94 0
-89 -124 -54 -84 0
-89 -124 -94 -84 0
-89 -54 -94 -84 0
-90 -125 -55 -95 0
-90 -125 -55 -85 0
-90 -125 -95 -85 0
-90 -55 -95 -85 0
91 92 93 94 95 0
-91 -92 0
-91 -93 0
-91 -94 0
-91 -95 0
-92 -93 0
-92 -94 0
-92 -95 0
-93 -94 0
-93 -95 0
-94 -95 0
-91 126 56 96 0
-91 126 56 86 0
-91 126 96 86 0
-91 56 96 86 0
-92 127 57 97 0
-92 127 57 87 0
-92 127 97 87 0
-92 57 97 87 0
-93 128 58 98 0
-93 128 58 88 0
-93 128 98 88 0
-93 58 98 88 0
-94 129 59 99 0
-94 129 59 89 0
-94 129 99 89 0
-94 59 99 89 0
-95 130 60 100 0
-95 130 60 90 0
-95 130 100 90 0
-95 60 100 90 0
-91 -126 -56 -96 0
-91 -126 -56 -86 0
-91 -126 -96 -86 0
-91 -56 -96 -86 0
-92 -127 -57 -97 0
-92 -127 -57 -87 0
-92 -127 -97 -87 0
-92 -57 -97 -87 0
-93 -128 -58 -98 0
-93 -128 -58 -88 0
-93 -128 -98 -88 0
-93 -58 -98 -88 0
-94 -129 -59 -99 0
-94 -129 -59 -89 0
-94 -129 -99 -89 0
-94 -59 -99 -89 0
-95 -130 -60 -100 0
-95 -130 -60 -90 0
-95 -130 -100 -90 0
-95 -60 -100 -90 0
96 97 98 99 100 0
-96 -97 0
-96 -98 0
-96 -99 0
-96 -100 0
-97 -98 0
-97 -99 0
-97 -100 0
-98 -99 0
-98 -100 0
-99 -100 0
-96 131 61 101 0
-96 131 61 91 0
-96 131 101 91 0
-96 61 101 91 0
-97 132 62 102 0
-97 132 62 92 0
-97 132 102 92 0
-97 62 102 92 0
-98 133 63 103 0
-98 133 63 93 0
-98 133 103 93 0
-98 63 103 93 0
-99 134 64 104 0
-99 134 64 94 0
-99 134 104 94 0
-99 64 104 94 0
-100 135 65 105 0
-100 135 65 95 0
-100 135 105 95 0
-100 65 105 95 0
-96 -131 -61 -101 0
-96 -131 -61 -91 0
-96 -131 -101 -91 0
-96 -61 -101 -91 0
-97 -132 -62 -102 0
-97 -132 -62 -92 0
-97 -132 -102 -92 0
-97 -62 -102 -92 0
-98 -133 -63 -103 0
-98 -133 -63 -93 0
-98 -133 -103 -93 0
-98 -63 -103 -93 0
-99 -134 -64 -104 0
-99 -134 -64 -94 0
-99 -134 -104 -94 0
-99 -64 -104 -94 0
-100 -135 -65 -105 0
-100 -135 -65 -95 0
-100 -135 -105 -95 0
-100 -65 -105 -95 0
101 102 103 104 105 0
-101 -102 0
-101 -103 0
-101 -104 0
-101 -105 0
-102 -103 0
-102 -104 0
-102 -105 0
-103 -104 0
-103 -105 0
-104 -105 0
-101 136 66 0
-101 136 96 0
-101 66 96 0
-102 137 67 0
-102 137 97 0
-102 67 97 0
-103 138 68 0
-103 138 98 0
-103 68 98 0
-104 139 69 0
-104 139 99 0
-104 69 99 0
-105 140 70 0
-105 140 100 0
-105 70 100 0
-101 -136 -66 -96 0
-102 -137 -67 -97 0
-103 -138 -68 -98 0
-104 -139 -69 -99 0
-105 -140 -70 -100 0
106 107 108 109 110 0
-106 -107 0
-106 -108 0
-106 -109 0
-106 -110 0
-107 -108 0
-107 -109 0
-107 -110 0
-108 -109 0
-108 -110 0
-109 -110 0
-106 141 71 0
-106 141 111 0
-106 71 111 0
-107 142 72 0
-107 142 112 0
-107 72 112 0
-108 143 73 0
-108 143 113 0
-108 73 113 0
-109 144 74 0
-109 144 114 0
-109 74 114 0
-110 145 75 0
-110 145 115 0
-110 75 115 0
-106 -141 -71 -111 0
-107 -142 -72 -112 0
-108 -143 -73 -113 0
-109 -144 -74 -114 0
-110 -145 -75 -115 0
111 112 113 114 115 0
-111 -112 0
-111 -113 0
-111 -114 0
-111 -115 0
-112 -113 0
-112 -114 0
-112 -115 0
-113 -114 0
-113 -115 0
-114 -115 0
-111 146 76 116 0
-111 146 76 106 0
-111 146 116 106 0
-111 76 116 106 0
-112 147 77 117 0
-112 147 77 107 0
-112 147 117 107 0
-112 77 117 107 0
-113 148 78 118 0
-113 148 78 108 0
-113 148 118 108 0
-113 78 118 108 0
-114 149 79 119 0
-114 149 79 109 0
-114 149 119 109 0
-114 79 119 109 0
-115 150 80 120 0
-115 150 80 110 0
-115 150 120 110 0
-115 80 120 110 0
-111 -146 -76 -116 0
-111 -146 -76 -106 0
-111 -146 -116 -106 0
-111 -76 -116 -106 0
-112 -147 -77 -117 0
-112 -147 -77 -107 0
-112 -147 -117 -107 0
-112 -77 -117 -107 0
-113 -148 -78 -118 0
-113 -148 -78 -108 0
-113 -148 -118 -108 0
-113 -78 -118 -108 0
-114 -149 -79 -119 0
-114 -149 -79 -109 0
-114 -149 -119 -109 0
-114 -79 -119 -109 0
-115 -150 -80 -120 0
-115 -150 -80 -110 0
-115 -150 -120 -110 0
-115 -80 -120 -110 0
116 117 118 119 120 0
-116 -117 0
-116 -118 0
-116 -119 0
-116 -120 0
-117 -118 0
-117 -119 0
-117 -120 0
-118 -119 0
-118 -120 0
-119 -120 0
-116 151 81 121 0
-116 151 81 111 0
-116 151 121 111 0
-116 81 121 111 0
-117 152 82 122 0
-117 152 82 112 0
-117 152 122 112 0
-117 82 122 112 0
-118 153 83 123 0
-118 153 83 113 0
-118 153 123 113 0
-118 83 123 113 0
-119 154 84 124 0
-119 154 84 114 0
-119 154 124 114 0
-119 84 124 114 0
-120 155 85 125 0
-120 155 85 115 0
-120 155 125 115 0
-120 85 125 115 0
-116 -151 -81 -121 0
-116 -151 -81 -111 0
-116 -151 -121 -111 0
-116 -81 -121 -111 0
-117 -152 -82 -122 0
-117 -152 -82 -112 0
-117 -152 -122 -112 0
-117 -82 -122 -112 0
-118 -153 -83 -123 0
-118 -153 -83 -113 0
-118 -153 -123 -113 0
-118 -83 -123 -113 0
-119 -154 -84 -124 0
-119 -154 -84 -114 0
-119 -154 -124 -114 0
-119 -84 -124 -114 0
-120 -155 -85 -125 0
-120 -155 -85 -115 0
-120 -155 -125 -115 0
-120 -85 -125 -115 0
121 122 123 124 125 0
-121 -122 0
-121 -123 0
-121 -124 0
-121 -125 0
-122 -123 0
-122 -124 0
-122 -125 0
-123 -124 0
-123 -125 0
-124 -125 0
-121 156 86 126 0
-121 156 86 116 0
-121 156 126 116 0
-121 86 126 116 0
-122 157 87 127 0
-122 157 87 117 0
-122 157 127 117 0
-122 87 127 117 0
-123 158 88 128 0
-123 158 88 118 0
-123 158 128 118 0
-123 88 128 118 0
-124 159 89 129 0
-124 159 89 119 0
-124 159 129 119 0
-124 89 129 119 0
-125 160 90 130 0
-125 160 90 120 0
-125 160 130 120 0
-125 90 130 120 0
-121 -156 -86 -126 0
-121 -156 -86 -116 0
-121 -156 -126 -116 0
-121 -86 -126 -116 0
-122 -157 -87 -127 0
-122 -157 -87 -117 0
-122 -157 -127 -117 0
-122 -87 -127 -117 0
-123 -158 -88 -128 0
-123 -158 -88 -118 0
-123 -158 -128 -118 0
-123 -88 -128 -118 0
-124 -159 -89 -129 0
-124 -159 -89 -119 0
-124 -159 -129 -119 0
-124 -89 -129 -119 0
-125 -160 -90 -130 0
-125 -160 -90 -120 0
-125 -160 -130 -120 0
-125 -90 -130 -120 0
126 127 128 129 130 0
-126 -127 0
-126 -128 0
-126 -129 0
-126 -130 0
-127 -128 0
-127 -129 0
-127 -130 0
-128 -129 0
-128 -130 0
-129 -130 0
-126 161 91 131 0
-126 161 91 121 0
-126 161 131 121 0
-126 91 131 121 0
-127 162 92 132 0
-127 162 92 122 0
-127 162 132 122 0
-127 92 132 122 0
-128 163 93 133 0
-128 163 93 123 0
-128 163 133 123 0
-128 93 133 123 0
-129 164 94 134 0
-129 164 94 124 0
-129 164 134 124 0
-129 94 134 124 0
-130 165 95 135 0
-130 165 95 125 0
-130 165 135 125 0
-130 95 135 125 0
-126 -161 -91 -131 0
-126 -161 -91 -121 0
-126 -161 -131 -121 0
-126 -91 -131 -121 0
-127 -162 -92 -132 0
-127 -162 -92 -122 0
-127 -162 -132 -122 0
-127 -92 -132 -122 0
-128 -163 -93 -133 0
-128 -163 -93 -123 0
-128 -163 -133 -123 0
-128 -93 -133 -123 0
-129 -164 -94 -134 0
-129 -164 -94 -124 0
-129 -164 -134 -124 0
-129 -94 -134 -124 0
-130 -165 -95 -135 0
-130 -165 -95 -125 0
-130 -165 -135 -125 0
-130 -95 -135 -125 0
131 132 133 134 135 0
-131 -132 0
-131 -133 0
-131 -134 0
-131 -135 0
-132 -133 0
-132 -134 0
-132 -135 0
-133 -134 0
-133 -135 0
-134 -135 0
-131 166 96 136 0
-131 166 96 126 0
-131 166 136 126 0
-131 96 136 126 0
-132 167 97 137 0
-132 167 97 127 0
-132 167 137 127 0
-132 97 137 127 0
-133 168 98 138 0
-133 168 98 128 0
-133 168 138 128 0
-133 98 138 128 0
-134 169 99 139 0
-134 169 99 129 0
-134 169 139 129 0
-134 99 139 129 0
-135 170 100 140 0
-135 170 100 130 0
-135 170 140 130 0
-135 100 140 130 0
-131 -166 -96 -136 0
-131 -166 -96 -126 0
-131 -166 -136 -126 0
-131 -96 -136 -126 0
-132 -167 -97 -137 0
-132 -167 -97 -127 0
-132 -167 -137 -127 0
-132 -97 -137 -127 0
-133 -168 -98 -138 0
-133 -168 -98 -128 0
-133 -168 -138 -128 0
-133 -98 -138 -128 0
-134 -169 -99 -139 0
-134 -169 -99 -129 0
-134 -169 -139 -129 0
-134 -99 -139 -129 0
-135 -170 -100 -140 0
-135 -170 -100 -130 0
-135 -170 -140 -130 0
-135 -100 -140 -130 0
136 137 138 139 140 0
-136 -137 0
-136 -138 0
-136 -139 0
-136 -140 0
-137 -138 0
-137 -139 0
-137 -140 0
-138 -139 0
-138 -140 0
-139 -140 0
-136 171 101 0
-136 171 131 0
-136 101 131 0
-137 172 102 0
-137 172 132 0
-137 102 132 0
-138 173 103 0
-138 173 133 0
-138 103 133 0
-139 174 104 0
-139 174 134 0
-139 104 134 0
-140 175 105 0
-140 175 135 0
-140 105 135 0
-136 -171 -101 -131 0
-137 -172 -102 -132 0
-138 -173 -103 -133 0
-139 -174 -104 -134 0
-140 -175 -105 -135 0
141 142 143 144 145 0
-141 -142 0
-141 -143 0
-141 -144 0
-141 -145 0
-142 -143 0
-142 -144 0
-142 -145 0
-143 -144 0
-143 -145 0
-144 -145 0
-141 176 106 0
-141 176 146 0
-141 106 146 0
-142 177 107 0
-142 177 147 0
-142 107 147 0
-143 178 108 0
-143 178 148 0
-143 108 148 0
-144 179 109 0
-144 179 149 0
-144 109 149 0
-145 180 110 0
-145 180 150 0
-145 110 150 0
-141 -176 -106 -146 0
-142 -177 -107 -147 0
-143 -178 -108 -148 0
-144 -179 -109 -149 0
-145 -180 -110 -150 0
146 147 148 149 150 0
-146 -147 0
-146 -148 0
-146 -149 0
-146 -150 0
-147 -148 0
-147 -149 0
-147 -150 0
-148 -149 0
-148 -150 0
-149 -150 0
-146 181 111 151 0
-146 181 111 141 0
-146 181 151 141 0
-146 111 151 141 0
-147 182 112 152 0
-147 182 112 142 0
-147 182 152 142 0
-147 112 152 142 0
-148 183 113 153 0
-148 183 113 143 0
-148 183 153 143 0
-148 113 153 143 0
-149 184 114 154 0
-149 184 114 144 0
-149 184 154 144 0
-149 114 154 144 0
-150 185 115 155 0
-150 185 115 145 0
-150 185 155 145 0
-150 115 155 145 0
-146 -181 -111 -151 0
-146 -181 -111 -141 0
-146 -181 -151 -141 0
-146 -111 -151 -141 0
-147 -182 -112 -152 0
-147 -182 -112 -142 0
-147 -182 -152 -142 0
-147 -112 -152 -142 0
-148 -183 -113 -153 0
-148 -183 -113 -143 0
-148 -183 -153 -143 0
-148 -113 -153 -143 0
-149 -184 -114 -154 0
-149 -184 -114 -144 0
-149 -184 -154 -144 0
-149 -114 -154 -144 0
-150 -185 -115 -155 0
-150 -185 -115 -145 0
-150 -185 -155 -145 0
-150 -115 -155 -145 0
153 0
-151 0
-152 0
-154 0
-155 0
188 118 158 148 0
-188 -118 0
-188 -158 0
-188 -148 0
-118 -158 0
-118 -148 0
-158 -148 0
157 0
-156 0
-158 0
-159 0
-160 0
192 122 162 152 0
-192 -122 0
-192 -162 0
-192 -152 0
-122 -162 0
-122 -152 0
-162 -152 0
161 0
-162 0
-163 0
-164 0
-165 0
196 126 166 156 0
-196 -126 0
-196 -166 0
-196 -156 0
-126 -166 0
-126 -156 0
-166 -156 0
166 167 168 169 170 0
-166 -167 0
-166 -168 0
-166 -169 0
-166 -170 0
-167 -168 0
-167 -169 0
-167 -170 0
-168 -169 0
-168 -170 0
-169 -170 0
-166 201 131 171 0
-166 201 131 161 0
-166 201 171 161 0
-166 131 171 161 0
-167 202 132 172 0
-167 202 132 162 0
-167 202 172 162 0
-167 132 172 162 0
-168 203 133 173 0
-168 203 133 163 0
-168 203 173 163 0
-168 133 173 163 0
-169 204 134 174 0
-169 204 134 164 0
-169 204 174 164 0
-169 134 174 164 0
-170 205 135 175 0
-170 205 135 165 0
-170 205 175 165 0
-170 135 175 165 0
-166 -201 -131 -171 0
-166 -201 -131 -161 0
-166 -201 -171 -161 0
-166 -131 -171 -161 0
-167 -202 -132 -172 0
-167 -202 -132 -162 0
-167 -202 -172 -162 0
-167 -132 -172 -162 0
-168 -203 -133 -173 0
-168 -203 -133 -163 0
-168 -203 -173 -163 0
-168 -133 -173 -163 0
-169 -204 -134 -174 0
-169 -204 -134 -164 0
-169 -204 -174 -164 0
-169 -134 -174 -164 0
-170 -205 -135 -175 0
-170 -205 -135 -165 0
-170 -205 -175 -165 0
-170 -135 -175 -165 0
171 172 173 174 175 0
-171 -172 0
-171 -173 0
-171 -174 0
-171 -175 0
-172 -173 0
-172 -174 0
-172 -175 0
-173 -174 0
-173 -175 0
-174 -175 0
-171 206 136 0
-171 206 166 0
-171 136 166 0
-172 207 137 0
-172 207 167 0
-172 137 167 0
-173 208 138 0
-173 208 168 0
-173 138 168 0
-174 209 139 0
-174 209 169 0
-174 139 169 0
-175 210 140 0
-175 210 170 0
-175 140 170 0
-171 -206 -136 -166 0
-172 -207 -137 -167 0
-173 -208 -138 -168 0
-174 -209 -139 -169 0
-175 -210 -140 -170 0
177 0
-176 0
-178 0
-179 0
-180 0
212 142 182 0
-212 -142 0
-212 -182 0
-142 -182 0
181 182 183 184 185 0
-181 -182 0
-181 -183 0
-181 -184 0
-181 -185 0
-182 -183 0
-182 -184 0
-182 -185 0
-183 -184 0
-183 -185 0
-184 -185 0
-181 216 146 186 0
-181 216 146 176 0
-181 216 186 176 0
-181 146 186 176 0
-182 217 147 187 0
-182 217 147 177 0
-182 217 187 177 0
-182 147 187 177 0
-183 218 148 188 0
-183 218 148 178 0
-183 218 188 178 0
-183 148 188 178 0
-184 219 149 189 0
-184 219 149 179 0
-184 219 189 179 0
-184 149 189 179 0
-185 220 150 190 0
-185 220 150 180 0
-185 220 190 180 0
-185 150 190 180 0
-181 -216 -146 -186 0
-181 -216 -146 -176 0
-181 -216 -186 -176 0
-181 -146 -186 -176 0
-182 -217 -147 -187 0
-182 -217 -147 -177 0
-182 -217 -187 -177 0
-182 -147 -187 -177 0
-183 -218 -148 -188 0
-183 -218 -148 -178 0
-183 -218 -188 -178 0
-183 -148 -188 -178 0
-184 -219 -149 -189 0
-184 -219 -149 -179 0
-184 -219 -189 -179 0
-184 -149 -189 -179 0
-185 -220 -150 -190 0
-185 -220 -150 -180 0
-185 -220 -190 -180 0
-185 -150 -190 -180 0
186 187 188 189 190 0
-186 -187 0
-186 -188 0
-186 -189 0
-186 -190 0
-187 -188 0
-187 -189 0
-187 -190 0
-188 -189 0
-188 -190 0
-189 -190 0
-186 221 151 191 0
-186 221 151 181 0
-186 221 191 181 0
-186 151 191 181 0
-187 222 152 192 0
-187 222 152 182 0
-187 222 192 182 0
-187 152 192 182 0
-188 223 153 193 0
-188 223 153 183 0
-188 223 193 183 0
-188 153 193 183 0
-189 224 154 194 0
-189 224 154 184 0
-189 224 194 184 0
-189 154 194 184 0
-190 225 155 195 0
-190 225 155 185 0
-190 225 195 185 0
-190 155 195 185 0
-186 -221 -151 -191 0
-186 -221 -151 -181 0
-186 -221 -191 -181 0
-186 -151 -191 -181 0
-187 -222 -152 -192 0
-187 -222 -152 -182 0
-187 -222 -192 -182 0
-187 -152 -192 -182 0
-188 -223 -153 -193 0
-188 -223 -153 -183 0
-188 -223 -193 -183 0
-188 -153 -193 -183 0
-189 -224 -154 -194 0
-189 -224 -154 -184 0
-189 -224 -194 -184 0
-189 -154 -194 -184 0
-190 -225 -155 -195 0
-190 -225 -155 -185 0
-190 -225 -195 -185 0
-190 -155 -195 -185 0
191 192 193 194 195 0
-191 -192 0
-191 -193 0
-191 -194 0
-191 -195 0
-192 -193 0
-192 -194 0
-192 -195 0
-193 -194 0
-193 -195 0
-194 -195 0
-191 226 156 196 0
-191 226 156 186 0
-191 226 196 186 0
-191 156 196 186 0
-192 227 157 197 0
-192 227 157 187 0
-192 227 197 187 0
-192 157 197 187 0
-193 228 158 198 0
-193 228 158 188 0
-193 228 198 188 0
-193 158 198 188 0
-194 229 159 199 0
-194 229 159 189 0
-194 229 199 189 0
-194 159 199 189 0
-195 230 160 200 0
-195 230 160 190 0
-195 230 200 190 0
-195 160 200 190 0
-191 -226 -156 -196 0
-191 -226 -156 -186 0
-191 -226 -196 -186 0
-191 -156 -196 -186 0
-192 -227 -157 -197 0
-192 -227 -157 -187 0
-192 -227 -197 -187 0
-192 -157 -197 -187 0
-193 -228 -158 -198 0
-193 -228 -158 -188 0
-193 -228 -198 -188 0
-193 -158 -198 -188 0
-194 -229 -159 -199 0
-194 -229 -159 -189 0
-194 -229 -199 -189 0
-194 -159 -199 -189 0
-195 -230 -160 -200 0
-195 -230 -160 -190 0
-195 -230 -200 -190 0
-195 -160 -200 -190 0
196 197 198 199 200 0
-196 -197 0
-196 -198 0
-196 -199 0
-196 -200 0
-197 -198 0
-197 -199 0
-197 -200 0
-198 -199 0
-198 -200 0
-199 -200 0
-196 231 161 201 0
-196 231 161 191 0
-196 231 201 191 0
-196 161 201 191 0
-197 232 162 202 0
-197 232 162 192 0
-197 232 202 192 0
-197 162 202 192 0
-198 233 163 203 0
-198 233 163 193 0
-198 233 203 193 0
-198 163 203 193 0
-199 234 164 204 0
-199 234 164 194 0
-199 234 204 194 0
-199 164 204 194 0
-200 235 165 205 0
-200 235 165 195 0
-200 235 205 195 0
-200 165 205 195 0
-196 -231 -161 -201 0
-196 -231 -161 -191 0
-196 -231 -201 -191 0
-196 -161 -201 -191 0
-197 -232 -162 -202 0
-197 -232 -162 -192 0
-197 -232 -202 -192 0
-197 -162 -202 -192 0
-198 -233 -163 -203 0
-198 -233 -163 -193 0
-198 -233 -203 -193 0
-198 -163 -203 -193 0
-199 -234 -164 -204 0
-199 -234 -164 -194 0
-199 -234 -204 -194 0
-199 -164 -204 -194 0
-200 -235 -165 -205 0
-200 -235 -165 -195 0
-200 -235 -205 -195 0
-200 -165 -205 -195 0
201 202 203 204 205 0
-201 -202 0
-201 -203 0
-201 -204 0
-201 -205 0
-202 -203 0
-202 -204 0
-202 -205 0
-203 -204 0
-203 -205 0
-204 -205 0
-201 236 166 206 0
-201 236 166 196 0
-201 236 206 196 0
-201 166 206 196 0
-202 237 167 207 0
-202 237 167 197 0
-202 237 207 197 0
-202 167 207 197 0
-203 238 168 208 0
-203 238 168 198 0
-203 238 208 198 0
-203 168 208 198 0
-204 239 169 209 0
-204 239 169 199 0
-204 239 209 199 0
-204 169 209 199 0
-205 240 170 210 0
-205 240 170 200 0
-205 240 210 200 0
-205 170 210 200 0
-201 -236 -166 -206 0
-201 -236 -166 -196 0
-201 -236 -206 -196 0
-201 -166 -206 -196 0
-202 -237 -167 -207 0
-202 -237 -167 -197 0
-202 -237 -207 -197 0
-202 -167 -207 -197 0
-203 -238 -168 -208 0
-203 -238 -168 -198 0
-203 -238 -208 -198 0
-203 -168 -208 -198 0
-204 -239 -169 -209 0
-204 -239 -169 -199 0
-204 -239 -209 -199 0
-204 -169 -209 -199 0
-205 -240 -170 -210 0
-205 -240 -170 -200 0
-205 -240 -210 -200 0
-205 -170 -210 -200 0
206 207 208 209 210 0
-206 -207 0
-206 -208 0
-206 -209 0
-206 -210 0
-207 -208 0
-207 -209 0
-207 -210 0
-208 -209 0
-208 -210 0
-209 -210 0
-206 241 171 0
-206 241 201 0
-206 171 201 0
-207 242 172 0
-207 242 202 0
-207 172 202 0
-208 243 173 0
-208 243 203 0
-208 173 203 0
-209 244 174 0
-209 244 204 0
-209 174 204 0
-210 245 175 0
-210 245 205 0
-210 175 205 0
-206 -241 -171 -201 0
-207 -242 -172 -202 0
-208 -243 -173 -203 0
-209 -244 -174 -204 0
-210 -245 -175 -205 0
211 212 213 214 215 0
-211 -212 0
-211 -213 0
-211 -214 0
-211 -215 0
-212 -213 0
-212 -214 0
-212 -215 0
-213 -214 0
-213 -215 0
-214 -215 0
-211 176 0
-211 216 0
-212 177 0
-212 217 0
-213 178 0
-213 218 0
-214 179 0
-214 219 0
-215 180 0
-215 220 0
216 217 218 219 220 0
-216 -217 0
-216 -218 0
-216 -219 0
-216 -220 0
-217 -218 0
-217 -219 0
-217 -220 0
-218 -219 0
-218 -220 0
-219 -220 0
-216 211 181 0
-216 181 221 0
-216 211 221 0
-217 212 182 0
-217 182 222 0
-217 212 222 0
-218 213 183 0
-218 183 223 0
-218 213 223 0
-219 214 184 0
-219 184 224 0
-219 214 224 0
-220 215 185 0
-220 185 225 0
-220 215 225 0
-216 -181 -211 -221 0
-217 -182 -212 -222 0
-218 -183 -213 -223 0
-219 -184 -214 -224 0
-220 -185 -215 -225 0
221 222 223 224 225 0
-221 -222 0
-221 -223 0
-221 -224 0
-221 -225 0
-222 -223 0
-222 -224 0
-222 -225 0
-223 -224 0
-223 -225 0
-224 -225 0
-221 216 186 0
-221 186 226 0
-221 216 226 0
-222 217 187 0
-222 187 227 0
-222 217 227 0
-223 218 188 0
-223 188 228 0
-223 218 228 0
-224 219 189 0
-224 189 229 0
-224 219 229 0
-225 220 190 0
-225 190 230 0
-225 220 230 0
-221 -186 -216 -226 0
-222 -187 -217 -227 0
-223 -188 -218 -228 0
-224 -189 -219 -229 0
-225 -190 -220 -230 0
226 227 228 229 230 0
-226 -227 0
-226 -228 0
-226 -229 0
-226 -230 0
-227 -228 0
-227 -229 0
-227 -230 0
-228 -229 0
-228 -230 0
-229 -230 0
-226 221 191 0
-226 191 231 0
-226 221 231 0
-227 222 192 0
-227 192 232 0
-227 222 232 0
-228 223 193 0
-228 193 233 0
-228 223 233 0
-229 224 194 0
-229 194 234 0
-229 224 234 0
-230 225 195 0
-230 195 235 0
-230 225 235 0
-226 -191 -221 -231 0
-227 -192 -222 -232 0
-228 -193 -223 -233 0
-229 -194 -224 -234 0
-230 -195 -225 -235 0
231 232 233 234 235 0
-231 -232 0
-231 -233 0
-231 -234 0
-231 -235 0
-232 -233 0
-232 -234 0
-232 -235 0
-233 -234 0
-233 -235 0
-234 -235 0
-231 226 196 0
-231 196 236 0
-231 226 236 0
-232 227 197 0
-232 197 237 0
-232 227 237 0
-233 228 198 0
-233 198 238 0
-233 228 238 0
-234 229 199 0
-234 199 239 0
-234 229 239 0
-235 230 200 0
-235 200 240 0
-235 230 240 0
-231 -196 -226 -236 0
-232 -197 -227 -237 0
-233 -198 -228 -238 0
-234 -199 -229 -239 0
-235 -200 -230 -240 0
236 237 238 239 240 0
-236 -237 0
-236 -238 0
-236 -239 0
-236 -240 0
-237 -238 0
-237 -239 0
-237 -240 0
-238 -239 0
-238 -240 0
-239 -240 0
-236 231 201 0
-236 201 241 0
-236 231 241 0
-237 232 202 0
-237 202 242 0
-237 232 242 0
-238 233 203 0
-238 203 243 0
-238 233 243 0
-239 234 204 0
-239 204 244 0
-239 234 244 0
-240 235 205 0
-240 205 245 0
-240 235 245 0
-236 -201 -231 -241 0
-237 -202 -232 -242 0
-238 -203 -233 -243 0
-239 -204 -234 -244 0
-240 -205 -235 -245 0
245 0
-241 0
-242 0
-243 0
-244 0
210 240 0
-210 -240 0
36 41 46 51 66 0
71 76 86 91 96 101 0
106 111 116 121 126 131 136 0
7 42 77 112 147 182 217 0
12 47 117 187 222 0
73 78 88 93 98 103 0
108 113 118 123 128 133 138 0
18 53 88 123 193 228 0
19 54 89 124 194 229 0
94 129 199 234 0
40 45 50 55 70 0
75 80 90 95 100 105 0
110 115 120 125 130 135 140 0
145 150 170 175 0
185 190 195 200 205 210 0